17	4	3
30	30	25	31	29	33	32	
0	0	0	0	0	2	3	1	2	4	10	3	2	3	4
2	5	7	6	5	8	4	5	5	7	4	3	8	9	17
8	8	6	1	4	7	4	6	3	9	10	1	5
6	7	4	9	4	7	7	7	5	8	10	3	6	7	10
4	4	3	9	5	5	3	1	7	6	4	3	11	13	16
50	1	8	8	1	5	8	7	5	9	1	1	17
125	10	7	1	5	5	6	4	9	10	1	1	17
175	4	9	10	6	2	7	4	7	10	2	1	11
100	4	3	1	6	7	7	9	4	1	6	1	17
250	3	8	10	4	3	6	9	3	2	4	3	12	14	15
125	3	6	5	4	7	7	2	3	1	10	1	17
25	7	1	8	4	3	5	6	7	4	6	2	16	17
6	4	10	9	4	7	5	3	1	2	2	2	17	17
5	8	5	2	10	3	9	8	1	2	9	1	17
3	10	2	6	8	6	5	5	5	7	7	1	17
10	1	4	1	9	9	3	3	10	6	4	1	17
0	0	0	0	0	9	9	9	4	5	2	0
